NAME : single
TYPE : ATSP
DIMENSION : 12
EDGE_WEIGHT_TYPE : EXPLICIT
EDGE_WEIGHT_FORMAT : FULL_MATRIX
EDGE_WEIGHT_SECTION
0 1000 50400 700 800 900 800 800 700 600 800 100 
0 0 200 200 500 700 700 600 800 900 200 700 
0 200 0 300 700 800 900 700 900 1100 300 800 
0 200 300 0 200 400 400 300 500 600 100 500 
0 500 700 200 0 200 200 100 300 500 400 500 
0 700 800 400 200 0 200 200 300 400 600 600 
0 700 900 400 200 200 0 200 200 400 500 700 
0 600 700 300 100 200 200 0 300 600 500 600 
0 800 900 500 300 300 200 300 0 100 600 600 
0 900 1100 600 500 400 400 600 100 0 800 400 
0 200 300 100 400 600 500 500 600 800 0 500 
0 700 800 500 500 600 700 600 600 400 500 0 
